FEATURES = {liveStreaming,transactionFee,hdLiveVideoWithRecording,multiSessionEvents,rtmpSudio,emailSupport,chatSupport,stripeIntegration,eventAnalytics,sessionAnalytics,zapierIntegration,exportEmailAddresses,exportChat,exportData,multistreaming,customRegistrationFields};
USAGE_LIMITS = {liveAttendeesLimit,liveHoursPerMonthLimit,hostSeatsLimit,sessionsLimit,multistreamLocationsLimit};
PLANS = {LITE,PRO,BUSINESS};
ADDONS = {};

plans_prices = [49.0,89.0,195.0];
addons_prices = [];

plans_features = array2d(PLANS, FEATURES, [
    % LITE
    1,1,1,1,1,1,1,1,1,1,1,1,1,1,0,0,
    % PRO
    1,1,1,1,1,1,1,1,1,1,1,1,1,1,1,1,
    % BUSINESS
    1,1,1,1,1,1,1,1,1,1,1,1,1,1,1,1
]);
plans_usage_limits = array2d(PLANS, USAGE_LIMITS, [
    % LITE
    100,10,1,2,1,
    % PRO
    250,20,2,2,1,
    % BUSINESS
    1000,40,4,6,3
]);

linked_features = array2d(USAGE_LIMITS, FEATURES, [
    % liveAttendeesLimit
    1,0,0,0,0,0,0,0,0,0,0,0,0,0,0,0,
    % liveHoursPerMonthLimit
    1,0,0,0,0,0,0,0,0,0,0,0,0,0,0,0,
    % hostSeatsLimit
    1,0,0,0,0,0,0,0,0,0,0,0,0,0,0,0,
    % sessionsLimit
    1,0,0,0,0,0,0,0,0,0,0,0,0,0,0,0,
    % multistreamLocationsLimit
    0,0,0,0,0,0,0,0,0,0,0,0,0,0,1,0
]);

addons_features = array2d(ADDONS, FEATURES, [
]);
addons_usage_limits = array2d(ADDONS, USAGE_LIMITS, [
]);
addons_usage_limits_extensions = array2d(ADDONS, USAGE_LIMITS, [
]);
addons_available_for = array2d(ADDONS, PLANS, [
]);

addons_depends_on = array2d(ADDONS, ADDONS, [
]);